K-Point Grid
0
Monkhorst Pack
2 3 1
0 0 0

