System =
 Startparameter for this Run:
   NWRITE =      2;   LPETIM=F    write-flag & timer
   ENCUT = 450.000
   PREC   =  high
   ISTART =      0   job   : 0-new  1-cont  2-samecut
   ICHARG =      2    charge: 1-file 2-atom 10-const
   ISPIN  =      2    spin polarized calculation?
   INIWAV =      1    electr: 0-lowe 1-rand  2-diag
   NELM   =     200;   NELMIN= 2; NELMDL= -10     # of ELM steps
   EDIFF  =  0.5E-05   stopping-criterion for ELM

 Ionic Relaxation
   EDIFFG =  -0.1E-03   stopping-criterion for IOM
   NSW    =      700 number of steps for IOM
   NBLOCK =      1;   KBLOCK =    50    inner block; outer block
   IBRION =      3   ionic relax: 0-MD 1-quasi-New 2-CG
   ISIF   =      2
   IWAVPR =      1    prediction:  0-non 1-charg 2-wave 3-comb
   ISYM   =      2    0-nonsym 1-usesym
   LCORR  =      T    Harris-correction to forces
   POTIM  =      0     time-step for ion-motion
   TEIN   =      5000.0    initial temperature
   TEBEG  =      5000.0;   TEEND  =     5000.0 temperature during run
   SMASS  =    -1    Nose mass-parameter (am)
   ICHAIN =      2
   IOPT = 2

 Electronic Relaxation 2
   IALGO  =      38    algorithm
   LDIAG  =      T    sub-space diagonalisation
   LREAL  =      F     real-space projection
   LWAVE = F
   LAECHG=.TRUE.
   LCHARG = T

 DOS related values:
   EMIN   =  10.00;   EMAX   =-10.00  energy-range for DOS
   ISMEAR =    1;   SIGMA  =    0.1  broadening in eV -4-tet -1-fermi 0-gaus
